0 0 0 0
0 1 2 0
0 2 0 0
0 3 1 5
0 4 2 6
0 5 1 1
0 6 2 1
0 7 0 11
0 8 0 18
0 9 0 5
0 10 2 19
0 11 0 33
0 12 2 11
0 13 1 20
0 14 0 25
0 15 2 16
0 16 1 28
0 17 0 29
0 18 1 25
0 19 0 29
0 20 1 37
0 21 2 20
0 22 0 32
0 23 0 36
0 24 0 35
0 25 1 33
0 26 1 37
0 27 2 35
0 28 0 42
0 29 0 45
0 30 0 45
0 31 0 46
